(set-logic QF_S)
(declare-fun var0 () String)
(declare-fun var1 () String)
(declare-fun var2 () String)
(declare-fun var3 () String)
(declare-fun var4 () String)
(declare-fun var5 () String)
(declare-fun var6 () String)
(declare-fun var7 () String)
(declare-fun var8 () String)
(declare-fun var9 () String)
(declare-fun var10 () String)
(declare-fun var11 () String)
(declare-fun var12 () String)
(declare-fun var13 () String)
(declare-fun var14 () String)
(declare-fun var15 () String)
(declare-fun var16 () String)
(declare-fun var17 () String)
(declare-fun var18 () String)
(declare-fun var19 () String)
(declare-fun var20 () String)
(declare-fun var21 () String)
(declare-fun var22 () String)
(declare-fun var23 () String)
(declare-fun var24 () String)
(declare-fun var25 () String)
(declare-fun var26 () String)
(declare-fun var27 () String)
(declare-fun var28 () String)
(declare-fun var29 () String)
(declare-fun var30 () String)
(declare-fun var31 () String)
(declare-fun var32 () String)
(declare-fun var33 () String)
(declare-fun var34 () String)
(declare-fun var35 () String)
(declare-fun var36 () String)
(declare-fun var37 () String)
(declare-fun var38 () String)
(declare-fun var39 () String)
(declare-fun var40 () String)
(declare-fun var41 () String)
(declare-fun var42 () String)
(declare-fun var43 () String)
(declare-fun var44 () String)
(declare-fun var45 () String)
(declare-fun var46 () String)
(declare-fun var47 () String)
(declare-fun var48 () String)
(declare-fun var49 () String)
(declare-fun var50 () String)
(declare-fun var51 () String)
(declare-fun var52 () String)
(declare-fun var53 () String)
(declare-fun var54 () String)
(declare-fun var55 () String)
(declare-fun var56 () String)
(declare-fun var57 () String)
(declare-fun var58 () String)
(declare-fun var59 () String)
(declare-fun var60 () String)
(assert (= var0 (str.++ var1 var2)))
(assert (= var2 (str.++ var3 var4)))
(assert (= var4 (str.++ var5 var6)))
(assert (= var6 (str.++ var7 var8)))
(assert (= var8 (str.++ var9 var10)))
(assert (= var10 (str.++ var11 var12)))
(assert (= var12 (str.++ var13 var14)))
(assert (= var14 (str.++ var15 var16)))
(assert (= var16 (str.++ var17 var18)))
(assert (= var18 (str.++ var19 var20)))
(assert (= var20 (str.++ var21 var22)))
(assert (= var22 (str.++ var23 var24)))
(assert (= var24 (str.++ var25 var26)))
(assert (= var26 (str.++ var27 var28)))
(assert (= var28 (str.++ var29 var30)))
(assert (= var30 (str.++ var31 var32)))
(assert (= var32 (str.++ var33 var34)))
(assert (= var34 (str.++ var35 var36)))
(assert (= var36 (str.++ var37 var38)))
(assert (= var38 (str.++ var39 var40)))
(assert (= var40 (str.++ var41 var42)))
(assert (= var42 (str.++ var43 var44)))
(assert (= var44 (str.++ var45 var46)))
(assert (= var46 (str.++ var47 var48)))
(assert (= var48 (str.++ var49 var50)))
(assert (= var50 (str.++ var51 var52)))
(assert (= var52 (str.++ var53 var54)))
(assert (= var54 (str.++ var55 var56)))
(assert (= var56 (str.++ var57 var58)))
(assert (= var58 (str.++ var59 var60)))
(assert (= var0 "solution"))
(assert (= "P" (str.at var0 355)))
(assert (= "R" (str.at var39 853)))
(assert (= "W" (str.at var53 210)))
(assert (= "u" (str.at var17 750)))
(assert (= "5" (str.at var11 558)))
(assert (= "V" (str.at var53 686)))
(assert (= "=" (str.at var58 484)))
(assert (= "!" (str.at var29 224)))
(assert (= "z" (str.at var45 479)))
(assert (= "D" (str.at var42 708)))
(assert (= "A" (str.at var34 955)))
(assert (= "6" (str.at var44 944)))
(assert (= "c" (str.at var21 496)))
(assert (= "L" (str.at var31 756)))
(assert (= ":" (str.at var3 771)))
(assert (= "=" (str.at var28 296)))
(assert (= "F" (str.at var9 804)))
(assert (= "M" (str.at var35 375)))
(assert (= "?" (str.at var11 927)))
(assert (= "<" (str.at var44 937)))
(assert (= ">" (str.at var34 248)))
(assert (= "H" (str.at var19 855)))
(assert (= "v" (str.at var29 222)))
(assert (= "u" (str.at var18 382)))
(assert (= "b" (str.at var40 556)))
(assert (= "|" (str.at var11 113)))
(assert (= """" (str.at var5 665)))
(assert (= "m" (str.at var35 77)))
(assert (= "q" (str.at var39 85)))
(assert (= "`" (str.at var24 470)))
(assert (= "|" (str.at var50 32)))
(assert (= "a" (str.at var28 799)))
(assert (= "]" (str.at var21 604)))
(assert (= "k" (str.at var47 278)))
(assert (= "Y" (str.at var6 412)))
(assert (= "Q" (str.at var18 799)))
(assert (= "," (str.at var14 698)))
(assert (= "3" (str.at var39 297)))
(assert (= ")" (str.at var23 440)))
(assert (= "q" (str.at var15 52)))
(assert (= "B" (str.at var49 838)))
(assert (= ":" (str.at var40 394)))
(assert (= "(" (str.at var26 261)))
(assert (= ")" (str.at var5 541)))
(assert (= "p" (str.at var51 471)))
(assert (= "F" (str.at var0 529)))
(assert (= "L" (str.at var9 627)))
(assert (= "@" (str.at var50 697)))
(assert (= "}" (str.at var37 266)))
(assert (= "^" (str.at var51 997)))
(assert (= "O" (str.at var23 348)))
(assert (= "r" (str.at var51 559)))
(assert (= "0" (str.at var43 329)))
(assert (= "W" (str.at var9 241)))
(assert (= "s" (str.at var44 115)))
(assert (= "1" (str.at var32 375)))
(assert (= "G" (str.at var54 753)))
(assert (= "i" (str.at var12 701)))
(assert (= "\\" (str.at var35 718)))
(assert (= "N" (str.at var23 713)))
(assert (= "b" (str.at var20 917)))
(assert (= "p" (str.at var12 726)))
(assert (= "|" (str.at var16 941)))
(assert (= "x" (str.at var32 835)))
(assert (= "z" (str.at var20 589)))
(assert (= "," (str.at var5 137)))
(assert (= "@" (str.at var18 727)))
(assert (= "(" (str.at var30 613)))
(assert (= "#" (str.at var30 204)))
(assert (= "[" (str.at var12 185)))
(assert (= "s" (str.at var19 690)))
(assert (= "0" (str.at var60 432)))
(assert (= "q" (str.at var35 538)))
(assert (= "_" (str.at var56 457)))
(assert (= "o" (str.at var6 308)))
(assert (= "p" (str.at var46 319)))
(assert (= "5" (str.at var44 435)))
(assert (= "z" (str.at var10 54)))
(assert (= "t" (str.at var59 710)))
(assert (= "e" (str.at var37 30)))
(assert (= "f" (str.at var32 407)))
(assert (= ")" (str.at var8 75)))
(assert (= "w" (str.at var44 601)))
(assert (= "G" (str.at var27 482)))
(assert (= "u" (str.at var31 945)))
(assert (= "B" (str.at var7 403)))
(assert (= "\\" (str.at var15 214)))
(assert (= "g" (str.at var29 398)))
(assert (= "&" (str.at var40 553)))
(assert (= ")" (str.at var15 707)))
(assert (= "9" (str.at var46 441)))
(assert (= "!" (str.at var53 611)))
(assert (= "j" (str.at var54 861)))
(assert (= "`" (str.at var60 533)))
(assert (= "g" (str.at var45 51)))
(assert (= "s" (str.at var36 356)))
(assert (= "O" (str.at var2 983)))
(assert (= "D" (str.at var53 880)))
(assert (= "W" (str.at var47 901)))
(assert (= ":" (str.at var24 848)))
(assert (= "v" (str.at var3 274)))
(assert (= "@" (str.at var47 298)))
(assert (= ">" (str.at var4 832)))
(assert (= "|" (str.at var49 797)))
(assert (= "g" (str.at var3 280)))
(assert (= "8" (str.at var24 394)))
(assert (= "4" (str.at var60 637)))
(assert (= "x" (str.at var14 691)))
(assert (= "$" (str.at var13 987)))
(assert (= "2" (str.at var13 73)))
(assert (= "U" (str.at var51 760)))
(assert (= "E" (str.at var41 492)))
(assert (= "A" (str.at var55 27)))
(assert (= "R" (str.at var15 923)))
(assert (= "," (str.at var30 181)))
(assert (= "2" (str.at var34 126)))
(assert (= "&" (str.at var49 47)))
(assert (= "8" (str.at var59 872)))
(assert (= "#" (str.at var48 743)))
(assert (= "/" (str.at var7 673)))
(assert (= ">" (str.at var11 767)))
(assert (= "C" (str.at var3 872)))
(assert (= "R" (str.at var13 358)))
(assert (= "L" (str.at var9 188)))
(assert (= "s" (str.at var45 92)))
(assert (= "t" (str.at var25 354)))
(assert (= "0" (str.at var30 669)))
(assert (= "," (str.at var26 615)))
(assert (= ":" (str.at var11 421)))
(assert (= "-" (str.at var31 638)))
(assert (= "g" (str.at var3 652)))
(assert (= "." (str.at var48 335)))
(assert (= "k" (str.at var7 10)))
(assert (= "h" (str.at var13 611)))
(assert (= "L" (str.at var50 710)))
(assert (= "!" (str.at var44 644)))
(assert (= "y" (str.at var15 155)))
(assert (= "=" (str.at var35 771)))
(assert (= "I" (str.at var28 534)))
(assert (= "." (str.at var17 100)))
(assert (= "}" (str.at var42 128)))
(assert (= "Z" (str.at var7 210)))
(assert (= "'" (str.at var41 43)))
(assert (= "3" (str.at var42 83)))
(assert (= "<" (str.at var37 722)))
(assert (= "L" (str.at var16 630)))
(assert (= "(" (str.at var29 983)))
(assert (= "a" (str.at var18 832)))
(assert (= "]" (str.at var32 221)))
(assert (= "2" (str.at var50 778)))
(assert (= "+" (str.at var43 930)))
(assert (= "(" (str.at var49 807)))
(assert (= "C" (str.at var50 646)))
(assert (= "C" (str.at var17 284)))
(assert (= "t" (str.at var38 957)))
(assert (= "5" (str.at var5 320)))
(assert (= "}" (str.at var29 875)))
(assert (= "U" (str.at var42 114)))
(assert (= "-" (str.at var34 355)))
(assert (= "k" (str.at var36 827)))
(assert (= """" (str.at var60 193)))
(assert (= "<" (str.at var19 479)))
(assert (= "U" (str.at var42 102)))
(assert (= "m" (str.at var47 498)))
(assert (= "Q" (str.at var46 70)))
(assert (= "<" (str.at var26 513)))
(assert (= "w" (str.at var38 965)))
(assert (= "-" (str.at var21 410)))
(assert (= "/" (str.at var19 305)))
(assert (= "G" (str.at var34 934)))
(assert (= "Z" (str.at var46 414)))
(assert (= "!" (str.at var30 816)))
(assert (= "t" (str.at var26 216)))
(assert (= "<" (str.at var41 384)))
(assert (= "Z" (str.at var50 190)))
(assert (= "," (str.at var26 948)))
(assert (= "'" (str.at var57 82)))
(assert (= "o" (str.at var56 284)))
(assert (= "K" (str.at var35 315)))
(assert (= "n" (str.at var2 311)))
(assert (= "`" (str.at var28 298)))
(assert (= "`" (str.at var32 361)))
(assert (= "7" (str.at var22 525)))
(assert (= "W" (str.at var12 735)))
(assert (= "K" (str.at var12 155)))
(assert (= "q" (str.at var30 316)))
(assert (= "_" (str.at var40 264)))
(assert (= "V" (str.at var10 177)))
(assert (= "3" (str.at var30 766)))
(assert (= "7" (str.at var18 813)))
(assert (= "K" (str.at var58 898)))
(assert (= "J" (str.at var52 493)))
(assert (= "s" (str.at var32 48)))
(assert (= "~" (str.at var21 291)))
(assert (= "c" (str.at var15 542)))
(assert (= "@" (str.at var7 219)))
(assert (= "k" (str.at var23 924)))
(assert (= "?" (str.at var34 402)))
(assert (= "~" (str.at var18 207)))
(assert (= "*" (str.at var9 100)))
(assert (= "(" (str.at var17 293)))
(assert (= "u" (str.at var29 694)))
(assert (= "I" (str.at var52 236)))
(assert (= "K" (str.at var30 824)))
(assert (= "W" (str.at var29 537)))
(assert (= "6" (str.at var29 803)))
(assert (= "9" (str.at var58 494)))
(assert (= "C" (str.at var50 945)))
(assert (= "," (str.at var52 311)))
(assert (= "*" (str.at var34 537)))
(assert (= "$" (str.at var7 431)))
(assert (= "_" (str.at var43 266)))
(assert (= "m" (str.at var30 165)))
(assert (= "R" (str.at var24 783)))
(assert (= "-" (str.at var36 168)))
(assert (= "H" (str.at var28 615)))
(assert (= "t" (str.at var59 568)))
(assert (= "d" (str.at var4 868)))
(assert (= "m" (str.at var48 840)))
(assert (= "*" (str.at var19 850)))
(assert (= "I" (str.at var26 674)))
(assert (= "0" (str.at var51 906)))
(assert (= "&" (str.at var23 45)))
(assert (= "@" (str.at var39 164)))
(assert (= "x" (str.at var10 584)))
(assert (= "M" (str.at var54 8)))
(assert (= "P" (str.at var20 614)))
(assert (= "P" (str.at var4 826)))
(assert (= "5" (str.at var29 357)))
(assert (= "t" (str.at var17 485)))
(assert (= "c" (str.at var57 459)))
(assert (= "m" (str.at var17 764)))
(assert (= ">" (str.at var60 965)))
(assert (= "R" (str.at var47 395)))
(assert (= "E" (str.at var42 123)))
(assert (= "s" (str.at var40 335)))
(assert (= "%" (str.at var35 785)))
(assert (= "T" (str.at var37 22)))
(assert (= "b" (str.at var58 325)))
(assert (= "F" (str.at var54 799)))
(assert (= "L" (str.at var26 558)))
(assert (= "c" (str.at var28 680)))
(assert (= "e" (str.at var29 721)))
(assert (= "4" (str.at var0 226)))
(assert (= "]" (str.at var40 893)))
(assert (= "l" (str.at var9 882)))
(assert (= "." (str.at var36 263)))
(assert (= "$" (str.at var43 263)))
(assert (= "H" (str.at var14 91)))
(assert (= ">" (str.at var25 774)))
(assert (= "Y" (str.at var27 952)))
(assert (= "h" (str.at var52 639)))
(assert (= "2" (str.at var6 347)))
(assert (= "J" (str.at var17 358)))
(assert (= "b" (str.at var40 489)))
(assert (= ":" (str.at var47 748)))
(assert (= "_" (str.at var48 53)))
(assert (= "R" (str.at var21 155)))
(assert (= "C" (str.at var4 776)))
(assert (= "Q" (str.at var57 630)))
(assert (= ":" (str.at var12 645)))
(assert (= "T" (str.at var13 870)))
(assert (= "g" (str.at var17 393)))
(assert (= "G" (str.at var40 519)))
(assert (= "^" (str.at var36 765)))
(assert (= "p" (str.at var27 559)))
(assert (= "_" (str.at var33 430)))
(assert (= "M" (str.at var39 885)))
(assert (= "g" (str.at var6 64)))
(assert (= "W" (str.at var31 76)))
(assert (= """" (str.at var10 940)))
(assert (= "M" (str.at var28 424)))
(assert (= "T" (str.at var32 56)))
(assert (= "c" (str.at var10 516)))
(assert (= "k" (str.at var28 785)))
(assert (= "/" (str.at var10 810)))
(assert (= "'" (str.at var54 409)))
(assert (= "T" (str.at var54 854)))
(assert (= "R" (str.at var14 178)))
(assert (= "[" (str.at var23 445)))
(assert (= "7" (str.at var43 842)))
(assert (= "1" (str.at var46 637)))
(assert (= "X" (str.at var18 540)))
(assert (= "&" (str.at var22 767)))
(assert (= "M" (str.at var2 184)))
(assert (= "L" (str.at var2 115)))
(assert (= "S" (str.at var34 753)))
(assert (= "*" (str.at var43 520)))
(assert (= "f" (str.at var37 729)))
(assert (= "R" (str.at var7 523)))
(assert (= "y" (str.at var16 449)))
(assert (= "U" (str.at var54 139)))
(assert (= "[" (str.at var3 13)))
(assert (= "]" (str.at var54 41)))
(assert (= "R" (str.at var26 506)))
(assert (= "g" (str.at var57 943)))
(assert (= "I" (str.at var0 67)))
(assert (= "7" (str.at var46 639)))
(assert (= "d" (str.at var60 792)))
(assert (= "V" (str.at var27 115)))
(assert (= "`" (str.at var19 18)))
(assert (= "P" (str.at var2 61)))
(assert (= "W" (str.at var40 321)))
(assert (= "$" (str.at var39 109)))
(assert (= "b" (str.at var21 359)))
(assert (= "U" (str.at var22 333)))
(assert (= "8" (str.at var51 639)))
(assert (= "x" (str.at var6 697)))
(assert (= "^" (str.at var17 371)))
(assert (= "5" (str.at var35 69)))
(assert (= "_" (str.at var54 837)))
(assert (= "2" (str.at var2 354)))
(assert (= """" (str.at var39 865)))
(assert (= "l" (str.at var35 594)))
(assert (= "'" (str.at var10 327)))
(assert (= "J" (str.at var8 483)))
(assert (= "4" (str.at var0 610)))
(assert (= "?" (str.at var29 241)))
(assert (= "Z" (str.at var40 548)))
(assert (= "_" (str.at var49 466)))
(assert (= "o" (str.at var38 554)))
(assert (= "T" (str.at var54 538)))
(assert (= "!" (str.at var35 464)))
(assert (= "V" (str.at var3 336)))
(assert (= "8" (str.at var1 493)))
(assert (= "," (str.at var29 4)))
(assert (= "!" (str.at var57 288)))
(assert (= "]" (str.at var26 524)))
(assert (= "@" (str.at var36 516)))
(assert (= "~" (str.at var25 47)))
(assert (= "L" (str.at var13 341)))
(assert (= "~" (str.at var47 644)))
(assert (= "B" (str.at var12 732)))
(assert (= "e" (str.at var9 333)))
(assert (= "}" (str.at var6 528)))
(assert (= ">" (str.at var12 269)))
(assert (= ")" (str.at var9 906)))
(assert (= "Q" (str.at var17 685)))
(assert (= "g" (str.at var17 978)))
(assert (= "z" (str.at var43 28)))
(assert (= "v" (str.at var44 906)))
(assert (= "z" (str.at var30 152)))
(assert (= "u" (str.at var41 891)))
(assert (= "2" (str.at var59 595)))
(assert (= "L" (str.at var29 670)))
(assert (= "z" (str.at var54 226)))
(assert (= "+" (str.at var36 289)))
(assert (= "M" (str.at var57 798)))
(assert (= "A" (str.at var33 468)))
(assert (= "/" (str.at var34 186)))
(assert (= "$" (str.at var59 754)))
(assert (= "+" (str.at var0 626)))
(assert (= "V" (str.at var24 556)))
(assert (= "l" (str.at var42 173)))
(assert (= "b" (str.at var0 344)))
(assert (= "]" (str.at var2 836)))
(assert (= "<" (str.at var45 655)))
(assert (= "i" (str.at var20 13)))
(assert (= "V" (str.at var9 21)))
(assert (= "\\" (str.at var24 136)))
(assert (= "p" (str.at var53 358)))
(assert (= "`" (str.at var53 215)))
(assert (= "p" (str.at var37 891)))
(assert (= "&" (str.at var25 114)))
(assert (= "5" (str.at var27 379)))
(assert (= "x" (str.at var29 401)))
(assert (= "v" (str.at var20 607)))
(assert (= "s" (str.at var49 529)))
(assert (= "O" (str.at var13 521)))
(assert (= "U" (str.at var13 691)))
(assert (= "C" (str.at var49 316)))
(assert (= "<" (str.at var10 466)))
(assert (= ">" (str.at var18 753)))
(assert (= "A" (str.at var56 999)))
(assert (= "0" (str.at var43 100)))
(assert (= "U" (str.at var56 346)))
(assert (= "T" (str.at var25 811)))
(assert (= "c" (str.at var14 31)))
(assert (= "!" (str.at var50 199)))
(assert (= ")" (str.at var39 483)))
(assert (= "q" (str.at var41 691)))
(assert (= "9" (str.at var8 741)))
(assert (= "$" (str.at var36 478)))
(assert (= ":" (str.at var5 562)))
(assert (= "*" (str.at var45 522)))
(assert (= "B" (str.at var6 375)))
(assert (= "h" (str.at var48 309)))
(assert (= "&" (str.at var52 420)))
(assert (= "i" (str.at var2 225)))
(assert (= "e" (str.at var48 753)))
(assert (= "J" (str.at var15 503)))
(assert (= "]" (str.at var29 908)))
(assert (= "%" (str.at var3 542)))
(assert (= "u" (str.at var57 972)))
(assert (= "C" (str.at var10 324)))
(assert (= "T" (str.at var32 370)))
(assert (= "E" (str.at var40 795)))
(assert (= "Q" (str.at var0 937)))
(assert (= "j" (str.at var13 807)))
(assert (= "5" (str.at var27 234)))
(assert (= ">" (str.at var17 803)))
(assert (= "m" (str.at var0 761)))
(assert (= "p" (str.at var11 491)))
(assert (= "y" (str.at var45 438)))
(assert (= "0" (str.at var46 821)))
(assert (= "0" (str.at var44 782)))
(assert (= "z" (str.at var31 728)))
(assert (= "b" (str.at var39 977)))
(assert (= "." (str.at var7 979)))
(assert (= "y" (str.at var27 618)))
(assert (= "b" (str.at var60 217)))
(assert (= "f" (str.at var20 969)))
(assert (= "M" (str.at var29 750)))
(assert (= "Z" (str.at var7 24)))
(assert (= "C" (str.at var38 35)))
(assert (= "H" (str.at var55 602)))
(assert (= "~" (str.at var5 253)))
(assert (= "9" (str.at var50 250)))
(assert (= "X" (str.at var56 443)))
(assert (= "O" (str.at var5 919)))
(assert (= "G" (str.at var36 511)))
(assert (= "^" (str.at var8 284)))
(assert (= "-" (str.at var0 825)))
(assert (= "\\" (str.at var21 921)))
(assert (= "O" (str.at var24 126)))
(assert (= "T" (str.at var13 481)))
(assert (= "V" (str.at var30 473)))
(assert (= "Z" (str.at var19 418)))
(assert (= "T" (str.at var10 512)))
(assert (= "J" (str.at var30 410)))
(assert (= "z" (str.at var33 373)))
(assert (= "*" (str.at var17 422)))
(assert (= "s" (str.at var36 864)))
(assert (= "k" (str.at var25 277)))
(assert (= "`" (str.at var43 359)))
(assert (= "+" (str.at var22 739)))
(assert (= "=" (str.at var45 22)))
(assert (= "&" (str.at var45 650)))
(assert (= "X" (str.at var33 24)))
(assert (= "(" (str.at var7 98)))
(assert (= "4" (str.at var40 174)))
(assert (= "*" (str.at var14 248)))
(assert (= "|" (str.at var42 426)))
(assert (= "P" (str.at var1 899)))
(assert (= "n" (str.at var2 923)))
(assert (= ":" (str.at var11 804)))
(assert (= "]" (str.at var47 185)))
(assert (= "J" (str.at var18 476)))
(assert (= "T" (str.at var34 552)))
(assert (= "^" (str.at var46 816)))
(assert (= "N" (str.at var46 632)))
(assert (= "." (str.at var39 59)))
(assert (= "e" (str.at var47 60)))
(assert (= "-" (str.at var17 354)))
(assert (= "x" (str.at var18 621)))
(assert (= "S" (str.at var53 25)))
(assert (= "$" (str.at var25 228)))
(assert (= "b" (str.at var55 454)))
(assert (= "D" (str.at var58 191)))
(assert (= "E" (str.at var12 84)))
(assert (= "~" (str.at var5 643)))
(assert (= "T" (str.at var31 893)))
(assert (= "|" (str.at var38 495)))
(assert (= "9" (str.at var3 548)))
(assert (= "V" (str.at var15 559)))
(assert (= "g" (str.at var60 737)))
(assert (= "w" (str.at var15 174)))
(assert (= "5" (str.at var32 71)))
(assert (= "X" (str.at var17 23)))
(assert (= "g" (str.at var21 523)))
(assert (= "L" (str.at var6 927)))
(assert (= ":" (str.at var39 34)))
(assert (= "p" (str.at var36 188)))
(assert (= "," (str.at var25 545)))
(assert (= "," (str.at var60 165)))
(assert (= "q" (str.at var29 560)))
(assert (= "s" (str.at var34 284)))
(assert (= "=" (str.at var42 712)))
(assert (= "0" (str.at var17 956)))
(assert (= "\\" (str.at var25 234)))
(assert (= "8" (str.at var44 18)))
(assert (= "Z" (str.at var14 568)))
(assert (= "<" (str.at var25 708)))
(assert (= "_" (str.at var49 416)))
(assert (= ")" (str.at var31 22)))
(assert (= "b" (str.at var2 763)))
(assert (= "0" (str.at var43 342)))
(assert (= "&" (str.at var57 860)))
(assert (= "d" (str.at var0 348)))
(assert (= "*" (str.at var51 770)))
(assert (= "8" (str.at var10 792)))
(assert (= "D" (str.at var4 396)))
(assert (= "o" (str.at var54 172)))
(assert (= "Z" (str.at var39 155)))
(assert (= "s" (str.at var24 292)))
(assert (= "|" (str.at var2 28)))
(assert (= "g" (str.at var58 146)))
(assert (= "A" (str.at var12 851)))
(assert (= ">" (str.at var28 624)))
(assert (= "I" (str.at var53 357)))
(assert (= "%" (str.at var27 534)))
(assert (= "T" (str.at var43 832)))
(assert (= "t" (str.at var19 440)))
(assert (= "p" (str.at var49 203)))
(assert (= "F" (str.at var13 956)))
(assert (= "q" (str.at var45 65)))
(assert (= "h" (str.at var33 44)))
(assert (= "!" (str.at var31 469)))
(assert (= "o" (str.at var56 203)))
(assert (= "x" (str.at var32 104)))
(assert (= "~" (str.at var9 858)))
(assert (= "j" (str.at var31 57)))
(assert (= ">" (str.at var29 125)))
(assert (= "," (str.at var40 419)))
(assert (= "6" (str.at var34 69)))
(assert (= ":" (str.at var29 107)))
(assert (= "t" (str.at var25 84)))
(assert (= "F" (str.at var53 642)))
(assert (= "h" (str.at var9 148)))
(assert (= "," (str.at var15 475)))
(assert (= ";" (str.at var9 595)))
(assert (= ")" (str.at var60 572)))
(assert (= "{" (str.at var39 813)))
(assert (= "f" (str.at var32 68)))
(assert (= "&" (str.at var59 476)))
(assert (= "O" (str.at var6 830)))
(assert (= "r" (str.at var50 792)))
(assert (= ")" (str.at var40 0)))
(assert (= "k" (str.at var37 16)))
(assert (= "7" (str.at var46 63)))
(assert (= "&" (str.at var20 892)))
(assert (= "u" (str.at var31 270)))
(assert (= "{" (str.at var3 314)))
(assert (= "Z" (str.at var54 149)))
(assert (= "f" (str.at var48 758)))
(assert (= "r" (str.at var15 517)))
(assert (= "v" (str.at var42 572)))
(assert (= ")" (str.at var46 157)))
(assert (= "0" (str.at var44 885)))
(assert (= "@" (str.at var40 832)))
(assert (= "/" (str.at var54 287)))
(assert (= "^" (str.at var42 441)))
(assert (= "T" (str.at var33 282)))
(assert (= "@" (str.at var49 650)))
(assert (= "r" (str.at var42 94)))
(assert (= "r" (str.at var46 782)))
(assert (= "r" (str.at var47 106)))
(assert (= "`" (str.at var54 322)))
(assert (= "N" (str.at var16 414)))
(assert (= "?" (str.at var14 374)))
(assert (= "H" (str.at var20 36)))
(assert (= "W" (str.at var59 354)))
(assert (= "0" (str.at var6 767)))
(assert (= "R" (str.at var21 679)))
(assert (= "p" (str.at var26 358)))
(assert (= "'" (str.at var33 42)))
(assert (= "k" (str.at var55 945)))
(assert (= "{" (str.at var51 410)))
(assert (= "i" (str.at var3 116)))
(assert (= "(" (str.at var53 762)))
(assert (= "U" (str.at var29 527)))
(check-sat)
(get-model)